\ Model dual_SQCQP_RLT
\ LP format - for model browsing. Use MPS format to capture full model detail.
Minimize
  x[0] + 2 x[1] + 3 x[2] + 4 x[3]
Subject To
 sym_X[0,0]: = 0
 sym_X[0,1]: X[0,1] - X[1,0] = 0
 sym_X[0,2]: X[0,2] - X[2,0] = 0
 sym_X[0,3]: X[0,3] - X[3,0] = 0
 sym_X[1,0]: - X[0,1] + X[1,0] = 0
 sym_X[1,1]: = 0
 sym_X[1,2]: X[1,2] - X[2,1] = 0
 sym_X[1,3]: X[1,3] - X[3,1] = 0
 sym_X[2,0]: - X[0,2] + X[2,0] = 0
 sym_X[2,1]: - X[1,2] + X[2,1] = 0
 sym_X[2,2]: = 0
 sym_X[2,3]: X[2,3] - X[3,2] = 0
 sym_X[3,0]: - X[0,3] + X[3,0] = 0
 sym_X[3,1]: - X[1,3] + X[3,1] = 0
 sym_X[3,2]: - X[2,3] + X[3,2] = 0
 sym_X[3,3]: = 0
 sym_U[0,0]: = 0
 sym_U[0,1]: U[0,1] - U[1,0] = 0
 sym_U[0,2]: U[0,2] - U[2,0] = 0
 sym_U[0,3]: U[0,3] - U[3,0] = 0
 sym_U[1,0]: - U[0,1] + U[1,0] = 0
 sym_U[1,1]: = 0
 sym_U[1,2]: U[1,2] - U[2,1] = 0
 sym_U[1,3]: U[1,3] - U[3,1] = 0
 sym_U[2,0]: - U[0,2] + U[2,0] = 0
 sym_U[2,1]: - U[1,2] + U[2,1] = 0
 sym_U[2,2]: = 0
 sym_U[2,3]: U[2,3] - U[3,2] = 0
 sym_U[3,0]: - U[0,3] + U[3,0] = 0
 sym_U[3,1]: - U[1,3] + U[3,1] = 0
 sym_U[3,2]: - U[2,3] + U[3,2] = 0
 sym_U[3,3]: = 0
 BigM_low[0]: - x[0] - u[0] <= 0
 BigM_low[1]: - x[1] - u[1] <= 0
 BigM_low[2]: - x[2] - u[2] <= 0
 BigM_low[3]: - x[3] - u[3] <= 0
 BigM_up[0]: x[0] - u[0] <= 0
 BigM_up[1]: x[1] - u[1] <= 0
 BigM_up[2]: x[2] - u[2] <= 0
 BigM_up[3]: x[3] - u[3] <= 0
 R40: - u[0] + U[0,0] = 0
 diagU_0: - u[0] + U[0,0] = 0
 R42: - u[1] + U[1,1] = 0
 diagU_1: - u[1] + U[1,1] = 0
 R44: - u[2] + U[2,2] = 0
 diagU_2: - u[2] + U[2,2] = 0
 R46: - u[3] + U[3,3] = 0
 diagU_3: - u[3] + U[3,3] = 0
 BigM_UU[0,0]: X[0,0] - 2 R[0,0] + U[0,0] >= 0
 BigM_UU[0,1]: X[0,1] - R[0,1] - R[1,0] + U[0,1] >= 0
 BigM_UU[0,2]: X[0,2] - R[0,2] - R[2,0] + U[0,2] >= 0
 BigM_UU[0,3]: X[0,3] - R[0,3] - R[3,0] + U[0,3] >= 0
 BigM_UU[1,0]: X[1,0] - R[0,1] - R[1,0] + U[1,0] >= 0
 BigM_UU[1,1]: X[1,1] - 2 R[1,1] + U[1,1] >= 0
 BigM_UU[1,2]: X[1,2] - R[1,2] - R[2,1] + U[1,2] >= 0
 BigM_UU[1,3]: X[1,3] - R[1,3] - R[3,1] + U[1,3] >= 0
 BigM_UU[2,0]: X[2,0] - R[0,2] - R[2,0] + U[2,0] >= 0
 BigM_UU[2,1]: X[2,1] - R[1,2] - R[2,1] + U[2,1] >= 0
 BigM_UU[2,2]: X[2,2] - 2 R[2,2] + U[2,2] >= 0
 BigM_UU[2,3]: X[2,3] - R[2,3] - R[3,2] + U[2,3] >= 0
 BigM_UU[3,0]: X[3,0] - R[0,3] - R[3,0] + U[3,0] >= 0
 BigM_UU[3,1]: X[3,1] - R[1,3] - R[3,1] + U[3,1] >= 0
 BigM_UU[3,2]: X[3,2] - R[2,3] - R[3,2] + U[3,2] >= 0
 BigM_UU[3,3]: X[3,3] - 2 R[3,3] + U[3,3] >= 0
 BigM_LL[0,0]: X[0,0] + 2 R[0,0] + U[0,0] >= 0
 BigM_LL[0,1]: X[0,1] + R[0,1] + R[1,0] + U[0,1] >= 0
 BigM_LL[0,2]: X[0,2] + R[0,2] + R[2,0] + U[0,2] >= 0
 BigM_LL[0,3]: X[0,3] + R[0,3] + R[3,0] + U[0,3] >= 0
 BigM_LL[1,0]: X[1,0] + R[0,1] + R[1,0] + U[1,0] >= 0
 BigM_LL[1,1]: X[1,1] + 2 R[1,1] + U[1,1] >= 0
 BigM_LL[1,2]: X[1,2] + R[1,2] + R[2,1] + U[1,2] >= 0
 BigM_LL[1,3]: X[1,3] + R[1,3] + R[3,1] + U[1,3] >= 0
 BigM_LL[2,0]: X[2,0] + R[0,2] + R[2,0] + U[2,0] >= 0
 BigM_LL[2,1]: X[2,1] + R[1,2] + R[2,1] + U[2,1] >= 0
 BigM_LL[2,2]: X[2,2] + 2 R[2,2] + U[2,2] >= 0
 BigM_LL[2,3]: X[2,3] + R[2,3] + R[3,2] + U[2,3] >= 0
 BigM_LL[3,0]: X[3,0] + R[0,3] + R[3,0] + U[3,0] >= 0
 BigM_LL[3,1]: X[3,1] + R[1,3] + R[3,1] + U[3,1] >= 0
 BigM_LL[3,2]: X[3,2] + R[2,3] + R[3,2] + U[3,2] >= 0
 BigM_LL[3,3]: X[3,3] + 2 R[3,3] + U[3,3] >= 0
 BigM_UL[0,0]: - X[0,0] + U[0,0] >= 0
 BigM_UL[0,1]: - X[0,1] - R[0,1] + R[1,0] + U[0,1] >= 0
 BigM_UL[0,2]: - X[0,2] - R[0,2] + R[2,0] + U[0,2] >= 0
 BigM_UL[0,3]: - X[0,3] - R[0,3] + R[3,0] + U[0,3] >= 0
 BigM_UL[1,0]: - X[1,0] + R[0,1] - R[1,0] + U[1,0] >= 0
 BigM_UL[1,1]: - X[1,1] + U[1,1] >= 0
 BigM_UL[1,2]: - X[1,2] - R[1,2] + R[2,1] + U[1,2] >= 0
 BigM_UL[1,3]: - X[1,3] - R[1,3] + R[3,1] + U[1,3] >= 0
 BigM_UL[2,0]: - X[2,0] + R[0,2] - R[2,0] + U[2,0] >= 0
 BigM_UL[2,1]: - X[2,1] + R[1,2] - R[2,1] + U[2,1] >= 0
 BigM_UL[2,2]: - X[2,2] + U[2,2] >= 0
 BigM_UL[2,3]: - X[2,3] - R[2,3] + R[3,2] + U[2,3] >= 0
 BigM_UL[3,0]: - X[3,0] + R[0,3] - R[3,0] + U[3,0] >= 0
 BigM_UL[3,1]: - X[3,1] + R[1,3] - R[3,1] + U[3,1] >= 0
 BigM_UL[3,2]: - X[3,2] + R[2,3] - R[3,2] + U[3,2] >= 0
 BigM_UL[3,3]: - X[3,3] + U[3,3] >= 0
 card_leq: u[0] + u[1] + u[2] + u[3] <= 3
 rho_self_RLT: - 6 u[0] - 6 u[1] - 6 u[2] - 6 u[3] + U[0,0] + U[0,1]
   + U[0,2] + U[0,3] + U[1,0] + U[1,1] + U[1,2] + U[1,3] + U[2,0] + U[2,1]
   + U[2,2] + U[2,3] + U[3,0] + U[3,1] + U[3,2] + U[3,3] >= -9
 BigM_rho_eu_low[0]: - 3 x[0] + 3 u[0] + R[0,0] + R[0,1] + R[0,2] + R[0,3]
   - U[0,0] - U[0,1] - U[0,2] - U[0,3] >= 0
 BigM_rho_eu_low[1]: - 3 x[1] + 3 u[1] + R[1,0] + R[1,1] + R[1,2] + R[1,3]
   - U[1,0] - U[1,1] - U[1,2] - U[1,3] >= 0
 BigM_rho_eu_low[2]: - 3 x[2] + 3 u[2] + R[2,0] + R[2,1] + R[2,2] + R[2,3]
   - U[2,0] - U[2,1] - U[2,2] - U[2,3] >= 0
 BigM_rho_eu_low[3]: - 3 x[3] + 3 u[3] + R[3,0] + R[3,1] + R[3,2] + R[3,3]
   - U[3,0] - U[3,1] - U[3,2] - U[3,3] >= 0
 BigM_rho_eu_up[0]: 3 x[0] + 3 u[0] - R[0,0] - R[0,1] - R[0,2] - R[0,3]
   - U[0,0] - U[0,1] - U[0,2] - U[0,3] >= 0
 BigM_rho_eu_up[1]: 3 x[1] + 3 u[1] - R[1,0] - R[1,1] - R[1,2] - R[1,3]
   - U[1,0] - U[1,1] - U[1,2] - U[1,3] >= 0
 BigM_rho_eu_up[2]: 3 x[2] + 3 u[2] - R[2,0] - R[2,1] - R[2,2] - R[2,3]
   - U[2,0] - U[2,1] - U[2,2] - U[2,3] >= 0
 BigM_rho_eu_up[3]: 3 x[3] + 3 u[3] - R[3,0] - R[3,1] - R[3,2] - R[3,3]
   - U[3,0] - U[3,1] - U[3,2] - U[3,3] >= 0
Bounds
 x[0] free
 x[1] free
 x[2] free
 x[3] free
 u[0] free
 u[1] free
 u[2] free
 u[3] free
 X[0,0] free
 X[0,1] free
 X[0,2] free
 X[0,3] free
 X[1,0] free
 X[1,1] free
 X[1,2] free
 X[1,3] free
 X[2,0] free
 X[2,1] free
 X[2,2] free
 X[2,3] free
 X[3,0] free
 X[3,1] free
 X[3,2] free
 X[3,3] free
 R[0,0] free
 R[0,1] free
 R[0,2] free
 R[0,3] free
 R[1,0] free
 R[1,1] free
 R[1,2] free
 R[1,3] free
 R[2,0] free
 R[2,1] free
 R[2,2] free
 R[2,3] free
 R[3,0] free
 R[3,1] free
 R[3,2] free
 R[3,3] free
 U[0,0] free
 U[0,1] free
 U[0,2] free
 U[0,3] free
 U[1,0] free
 U[1,1] free
 U[1,2] free
 U[1,3] free
 U[2,0] free
 U[2,1] free
 U[2,2] free
 U[2,3] free
 U[3,0] free
 U[3,1] free
 U[3,2] free
 U[3,3] free
End
